p cnf 45 131
a 33 41 0
e 1 2 3 4 5 6 7 8 9 10 11 12 13 14 15 16 17 18 19 20 21 22 23 24 25 26 27 28 29 30 31 32 34 35 36 37 38 39 40 42 43 44 45 0
3 -1 0
3 -2 0
1 2 -3 0
-1 4 -5 0
1 -4 -5 0
-1 -4 5 0
1 4 5 0
-7 5 0
-7 -6 0
-5 6 7 0
8 -3 0
8 7 0
3 -7 -8 0
10 6 0
10 9 0
-6 -9 -10 0
12 6 0
12 2 0
-6 -2 -12 0
13 11 0
13 12 0
-11 -12 -13 0
5 13 -14 0
-5 -13 -14 0
5 -13 14 0
-5 13 14 0
-15 5 0
-15 9 0
-5 -9 15 0
-16 -14 0
-16 -15 0
14 15 16 0
17 10 0
17 16 0
-10 -16 -17 0
-18 17 0
-18 -9 0
-17 9 18 0
19 2 0
19 16 0
-2 -16 -19 0
-18 -19 -20 0
18 19 -20 0
-18 19 20 0
18 -19 20 0
21 15 0
21 9 0
-15 -9 -21 0
23 11 0
23 -5 0
-11 5 -23 0
24 22 0
24 23 0
-22 -23 -24 0
-25 21 0
-25 -24 0
-21 24 25 0
-26 -20 0
-26 25 0
20 -25 26 0
-15 1 -27 0
15 -1 -27 0
-15 -1 27 0
15 1 27 0
-28 27 0
-28 9 0
-27 -9 28 0
29 26 0
29 -28 0
-26 28 -29 0
30 8 0
30 29 0
-8 -29 -30 0
12 22 -31 0
-12 -22 -31 0
12 -22 31 0
-12 22 31 0
32 -16 0
32 27 0
16 -27 -32 0
-33 -31 0
-33 32 0
31 -32 33 0
-35 -17 0
-35 34 0
17 -34 35 0
-36 11 0
-36 4 0
-11 -4 36 0
37 -35 0
37 -36 0
35 36 -37 0
-38 -21 0
-38 10 0
21 -10 38 0
-39 15 0
-39 2 0
-15 -2 39 0
21 -4 -40 0
-21 4 -40 0
21 4 40 0
-21 -4 40 0
-41 39 0
-41 40 0
-39 -40 41 0
38 41 -42 0
-38 -41 -42 0
38 -41 42 0
-38 41 42 0
43 37 0
43 42 0
-37 -42 -43 0
44 33 0
44 43 0
-33 -43 -44 0
45 -30 0
45 -44 0
30 44 -45 0
-3 -5 -44 -17 15 -26 -28 36 0
-37 30 -40 5 4 0
2 -24 43 -40 0
41 3 -34 11 39 -45 1 0
30 28 -5 -37 -24 0
36 -20 35 45 -28 0
-2 26 33 27 -8 0
-12 45 -10 -20 15 -18 0
-2 -17 4 0
40 -23 -24 8 -35 -31 0
-14 -5 -26 15 3 0
-35 -39 -27 18 36 -45 -7 -26 0
45 0
